Minimize
    23 x_b2_r +  5 x_el_r + 1.4 x_bn_r +
    58 x_b2_c + 10 x_el_c + 3.8 x_bn_c
Subject to
    x_b2_r + x_b2_c <=  8
    x_el_r + x_el_c <= 15
    x_bn_r + x_bn_c <= 12
    45 x_b2_r + 7 x_el_r + 4 x_bn_r >= 150
    45 x_b2_c + 7 x_el_c + 4 x_bn_c >= 100
Bounds
    x_b2_r >= 0
    x_el_r >= 0
    x_bn_r >= 0
    x_b2_c >= 0
    x_el_c >= 0
    x_bn_c >= 0
End
